50
12253

294 137
559 492
556 340
642 886
531 791
294 692
976 191
899 68
456 102
431 481
180 32
703 95
567 57
821 267
832 239
566 584
954 427
458 384
737 463
797 802
600 326
951 407
668 748
756 636
385 550
685 353
586 771
740 543
379 42
961 677
193 90
796 936
883 457
429 523
268 812
149 187
86 503
204 884
71 370
669 628
316 820
13 78
760 3
225 62
438 643
309 940
458 977
157 559
891 164
679 28
